0000000000000000
0000000000000000
0000000000000000
0000000000000000
0000000000000000
0000011100001000
0000000010001000
0000000110001000
0000001010010000
0000010001100000
0000010000111000
0000000000000000
0000000000000000
0000000000000000
0000000000000000
0000000000000000